(declare-fun c () String)
(declare-fun b () String)
(declare-fun d () String)
(declare-fun f () String)
(declare-fun a () String)
(declare-fun h () String)
(assert (= (str.++ "b" c "e") (str.++ d "ch" c)))
(assert (= (str.++ "fg" b "hhf") a))
(assert (= (str.++ "h" h f "d") "e"))

(check-sat)
